networks/zoo_78_890/zoo_78_890.txt
Number of groups: 41
Flow 19: {18 20} {20 59} 
Flow 21: {39 22} {22 61} 
Flow 32: {1 37} {37 35} {35 34} {34 73} 
Flow 47: {2 1} {1 4} {4 18} {18 57} 
Flow 56: {3 39} 
Flow 109: {5 8} {8 7} {7 46} 
Flow 120: {7 1} {1 2} {2 41} 
Flow 131: {24 16} {16 55} 
Flow 132: {6 8} {8 17} {17 56} 
Flow 137: {6 7} {7 10} {10 25} {25 64} 
Flow 174: {36 28} {28 67} 
Flow 188: {9 8} {8 47} 
Flow 243: {10 7} {7 6} 
Flow 260: {11 10} {10 24} {24 63} 
Flow 284: {12 36} {36 35} {35 74} 
Flow 294: {13 36} 
Flow 311: {14 35} {35 37} {37 76} 
Flow 317: {15 1} {1 7} {7 8} {8 9} {9 48} 
Flow 337: {16 24} {24 10} {10 11} {11 50} 
Flow 351: {17 8} {8 39} {39 3} {3 42} 
Flow 399: {35 14} {14 53} 
Flow 400: {4 1} {1 15} {15 54} 
Flow 411: {36 33} {33 32} {32 71} 
Flow 422: {19 8} {8 5} {5 44} 
Flow 423: {8 6} {6 45} 
Flow 448: {20 18} {18 4} {4 43} 
Flow 457: {21 38} {38 36} {36 1} {1 40} 
Flow 478: {22 39} {39 8} {8 19} {19 58} 
Flow 509: {23 36} {36 4} {4 26} {26 65} 
Flow 520: {38 77} 
Flow 531: {25 10} {10 8} {8 36} {36 75} 
Flow 540: {26 4} {4 36} {36 30} {30 69} 
Flow 553: {27 36} {36 12} {12 51} 
Flow 569: {28 36} {36 8} {8 10} {10 49} 
Flow 596: {29 39} {39 33} {33 72} 
Flow 613: {30 36} {36 13} {13 52} 
Flow 654: {31 36} {36 38} {38 21} {21 60} 
Flow 682: {32 33} {33 39} {39 78} 
Flow 699: {33 36} {36 31} {31 70} 
Flow 716: {34 35} {35 36} {36 23} {23 62} 
Flow 822: {37 1} {1 36} {36 27} {27 66} 
Time taken running everything: 44 seconds
