networks/zoo_78_890/zoo_78_890.sol
<?xml version = "1.0" encoding="UTF-8" standalone="yes"?>
<CPLEXSolution version="1.2">
 <header
   problemName="networks/zoo_78_890/zoo_78_890.lp"
   solutionName="incumbent"
   solutionIndex="-1"
   objectiveValue="41"
   solutionTypeValue="3"
   solutionTypeString="primal"
   solutionStatusValue="101"
   solutionStatusString="integer optimal solution"
   solutionMethodString="mip"
   primalFeasible="1"
   dualFeasible="1"
   MIPNodes="1405"
   MIPIterations="147041"
   writeLevel="3"/>
 <quality
   epInt="1.0000000000000001e-05"
   epRHS="9.9999999999999995e-07"
   maxIntInfeas="0"
   maxPrimalInfeas="0"
   maxX="4"
   maxSlack="10"/>
 <variables>
  <variable name="Y(19,20)" index="1405" value="1"/>
  <variable name="Y(32,34)" index="2420" value="1"/>
  <variable name="Y(45,12)" index="3399" value="1"/>
  <variable name="Y(69,39)" index="5274" value="1"/>
  <variable name="Y(92,24)" index="7030" value="1"/>
  <variable name="Y(99,32)" index="7577" value="1"/>
  <variable name="Y(110,8)" index="8400" value="1"/>
  <variable name="Y(122,5)" index="9321" value="1"/>
  <variable name="Y(131,16)" index="10025" value="1"/>
  <variable name="Y(194,19)" index="14879" value="1"/>
  <variable name="Y(243,7)" index="18640" value="1"/>
  <variable name="Y(275,12)" index="21109" value="1"/>
  <variable name="Y(288,4)" index="22102" value="1"/>
  <variable name="Y(297,1)" index="22792" value="1"/>
  <variable name="Y(322,18)" index="24734" value="1"/>
  <variable name="Y(336,10)" index="25804" value="1"/>
  <variable name="Y(351,3)" index="26952" value="1"/>
  <variable name="Y(363,15)" index="27888" value="1"/>
  <variable name="Y(426,9)" index="32733" value="1"/>
  <variable name="Y(437,25)" index="33596" value="1"/>
  <variable name="Y(449,7)" index="34502" value="1"/>
  <variable name="Y(467,35)" index="35916" value="1"/>
  <variable name="Y(480,33)" index="36915" value="1"/>
  <variable name="Y(497,13)" index="38204" value="1"/>
  <variable name="Y(498,14)" index="38282" value="1"/>
  <variable name="Y(531,36)" index="40845" value="1"/>
  <variable name="Y(540,30)" index="41532" value="1"/>
  <variable name="Y(557,23)" index="42834" value="1"/>
  <variable name="Y(570,11)" index="43823" value="1"/>
  <variable name="Y(572,17)" index="43983" value="1"/>
  <variable name="Y(584,6)" index="44896" value="1"/>
  <variable name="Y(627,27)" index="48228" value="1"/>
  <variable name="Y(654,21)" index="50301" value="1"/>
  <variable name="Y(682,33)" index="52469" value="1"/>
  <variable name="Y(699,31)" index="53776" value="1"/>
  <variable name="Y(721,37)" index="55476" value="1"/>
  <variable name="Y(798,2)" index="61370" value="1"/>
  <variable name="Y(817,22)" index="62853" value="1"/>
  <variable name="Y(823,28)" index="63321" value="1"/>
  <variable name="Y(846,26)" index="65090" value="1"/>
  <variable name="Y(890,38)" index="68490" value="1"/>
  <variable name="X(1,2,798)" index="69327" value="1"/>
  <variable name="X(1,4,322)" index="69741" value="1"/>
  <variable name="X(1,7,449)" index="70758" value="1"/>
  <variable name="X(1,15,363)" index="71562" value="1"/>
  <variable name="X(1,36,45)" index="72134" value="1"/>
  <variable name="X(1,37,32)" index="73011" value="1"/>
  <variable name="X(1,40,297)" index="74166" value="1"/>
  <variable name="X(2,1,45)" index="74804" value="1"/>
  <variable name="X(2,41,798)" index="76447" value="1"/>
  <variable name="X(3,39,69)" index="76608" value="1"/>
  <variable name="X(3,42,351)" index="77780" value="1"/>
  <variable name="X(4,1,449)" index="78768" value="1"/>
  <variable name="X(4,18,322)" index="79531" value="1"/>
  <variable name="X(4,26,846)" index="80945" value="1"/>
  <variable name="X(4,36,540)" index="81529" value="1"/>
  <variable name="X(4,43,288)" index="82167" value="1"/>
  <variable name="X(5,8,110)" index="82879" value="1"/>
  <variable name="X(5,44,122)" index="83781" value="1"/>
  <variable name="X(6,7,131)" index="84680" value="1"/>
  <variable name="X(6,8,122)" index="85561" value="1"/>
  <variable name="X(6,45,584)" index="86913" value="1"/>
  <variable name="X(7,1,363)" index="87582" value="1"/>
  <variable name="X(7,6,243)" index="88352" value="1"/>
  <variable name="X(7,8,817)" index="89816" value="1"/>
  <variable name="X(7,10,131)" index="90020" value="1"/>
  <variable name="X(7,46,449)" index="91228" value="1"/>
  <variable name="X(8,5,122)" index="91791" value="1"/>
  <variable name="X(8,6,584)" index="93143" value="1"/>
  <variable name="X(8,7,363)" index="93812" value="1"/>
  <variable name="X(8,9,426)" index="94765" value="1"/>
  <variable name="X(8,10,570)" index="95799" value="1"/>
  <variable name="X(8,17,572)" index="96691" value="1"/>
  <variable name="X(8,19,194)" index="97203" value="1"/>
  <variable name="X(8,36,531)" index="98430" value="1"/>
  <variable name="X(8,39,817)" index="99606" value="1"/>
  <variable name="X(8,47,110)" index="99789" value="1"/>
  <variable name="X(9,8,194)" index="100763" value="1"/>
  <variable name="X(9,48,426)" index="101885" value="1"/>
  <variable name="X(10,7,243)" index="102592" value="1"/>
  <variable name="X(10,8,531)" index="103770" value="1"/>
  <variable name="X(10,11,570)" index="104699" value="1"/>
  <variable name="X(10,24,131)" index="105150" value="1"/>
  <variable name="X(10,25,437)" index="106346" value="1"/>
  <variable name="X(10,49,336)" index="107135" value="1"/>
  <variable name="X(11,10,243)" index="107932" value="1"/>
  <variable name="X(11,50,570)" index="109149" value="1"/>
  <variable name="X(12,36,275)" index="109744" value="1"/>
  <variable name="X(12,51,45)" index="110404" value="1"/>
  <variable name="X(13,36,288)" index="111537" value="1"/>
  <variable name="X(13,52,497)" index="112636" value="1"/>
  <variable name="X(14,35,297)" index="113326" value="1"/>
  <variable name="X(14,53,498)" index="114417" value="1"/>
  <variable name="X(15,1,322)" index="115131" value="1"/>
  <variable name="X(15,54,363)" index="116062" value="1"/>
  <variable name="X(16,24,336)" index="116925" value="1"/>
  <variable name="X(16,55,131)" index="117610" value="1"/>
  <variable name="X(17,8,363)" index="118732" value="1"/>
  <variable name="X(17,56,572)" index="119831" value="1"/>
  <variable name="X(18,4,449)" index="120598" value="1"/>
  <variable name="X(18,20,19)" index="121058" value="1"/>
  <variable name="X(18,57,322)" index="122251" value="1"/>
  <variable name="X(19,8,426)" index="123245" value="1"/>
  <variable name="X(19,58,194)" index="123903" value="1"/>
  <variable name="X(20,18,449)" index="125048" value="1"/>
  <variable name="X(20,59,19)" index="125508" value="1"/>
  <variable name="X(21,38,467)" index="126846" value="1"/>
  <variable name="X(21,60,654)" index="127923" value="1"/>
  <variable name="X(22,39,480)" index="128639" value="1"/>
  <variable name="X(22,61,817)" index="129866" value="1"/>
  <variable name="X(23,36,497)" index="130436" value="1"/>
  <variable name="X(23,62,557)" index="131386" value="1"/>
  <variable name="X(24,10,336)" index="132055" value="1"/>
  <variable name="X(24,16,131)" index="132740" value="1"/>
  <variable name="X(24,63,92)" index="133591" value="1"/>
  <variable name="X(25,10,531)" index="134920" value="1"/>
  <variable name="X(25,64,437)" index="135716" value="1"/>
  <variable name="X(26,4,540)" index="136709" value="1"/>
  <variable name="X(26,65,846)" index="137905" value="1"/>
  <variable name="X(27,36,557)" index="138506" value="1"/>
  <variable name="X(27,66,627)" index="139466" value="1"/>
  <variable name="X(28,36,570)" index="140299" value="1"/>
  <variable name="X(28,67,823)" index="141442" value="1"/>
  <variable name="X(29,39,584)" index="142093" value="1"/>
  <variable name="X(30,36,627)" index="143026" value="1"/>
  <variable name="X(30,69,540)" index="143829" value="1"/>
  <variable name="X(31,36,654)" index="144833" value="1"/>
  <variable name="X(31,70,699)" index="145768" value="1"/>
  <variable name="X(32,33,682)" index="146641" value="1"/>
  <variable name="X(32,71,99)" index="146948" value="1"/>
  <variable name="X(33,32,99)" index="147838" value="1"/>
  <variable name="X(33,36,699)" index="149328" value="1"/>
  <variable name="X(33,39,682)" index="150201" value="1"/>
  <variable name="X(33,72,480)" index="150889" value="1"/>
  <variable name="X(34,35,721)" index="152020" value="1"/>
  <variable name="X(34,73,32)" index="152221" value="1"/>
  <variable name="X(35,14,498)" index="153577" value="1"/>
  <variable name="X(35,34,32)" index="154001" value="1"/>
  <variable name="X(35,36,297)" index="155156" value="1"/>
  <variable name="X(35,37,721)" index="156470" value="1"/>
  <variable name="X(35,74,467)" index="157106" value="1"/>
  <variable name="X(36,1,297)" index="157826" value="1"/>
  <variable name="X(36,4,288)" index="158707" value="1"/>
  <variable name="X(36,8,570)" index="159879" value="1"/>
  <variable name="X(36,12,45)" index="160244" value="1"/>
  <variable name="X(36,13,497)" index="161586" value="1"/>
  <variable name="X(36,23,557)" index="162536" value="1"/>
  <variable name="X(36,27,627)" index="163496" value="1"/>
  <variable name="X(36,28,823)" index="164582" value="1"/>
  <variable name="X(36,30,540)" index="165189" value="1"/>
  <variable name="X(36,31,699)" index="166238" value="1"/>
  <variable name="X(36,33,99)" index="166528" value="1"/>
  <variable name="X(36,35,467)" index="167786" value="1"/>
  <variable name="X(36,38,654)" index="168863" value="1"/>
  <variable name="X(36,75,531)" index="169630" value="1"/>
  <variable name="X(37,1,798)" index="170787" value="1"/>
  <variable name="X(37,35,32)" index="170911" value="1"/>
  <variable name="X(37,76,721)" index="172490" value="1"/>
  <variable name="X(38,21,654)" index="173313" value="1"/>
  <variable name="X(38,36,467)" index="174016" value="1"/>
  <variable name="X(38,77,890)" index="175329" value="1"/>
  <variable name="X(39,3,351)" index="175680" value="1"/>
  <variable name="X(39,8,584)" index="176803" value="1"/>
  <variable name="X(39,22,817)" index="177926" value="1"/>
  <variable name="X(39,33,480)" index="178479" value="1"/>
  <variable name="X(39,78,69)" index="178958" value="1"/>
  <variable name="C(19,20)" index="179843" value="1"/>
  <variable name="C(32,37)" index="179887" value="1"/>
  <variable name="C(32,35)" index="179888" value="2"/>
  <variable name="C(32,34)" index="179889" value="3"/>
  <variable name="C(45,1)" index="179931" value="1"/>
  <variable name="C(45,36)" index="179932" value="2"/>
  <variable name="C(45,12)" index="179933" value="3"/>
  <variable name="C(69,39)" index="180033" value="1"/>
  <variable name="C(99,33)" index="180141" value="1"/>
  <variable name="C(99,32)" index="180142" value="2"/>
  <variable name="C(110,8)" index="180177" value="1"/>
  <variable name="C(122,8)" index="180220" value="1"/>
  <variable name="C(122,5)" index="180221" value="2"/>
  <variable name="C(131,7)" index="180250" value="1"/>
  <variable name="C(131,10)" index="180251" value="2"/>
  <variable name="C(131,24)" index="180252" value="3"/>
  <variable name="C(131,16)" index="180253" value="4"/>
  <variable name="C(194,8)" index="180464" value="1"/>
  <variable name="C(194,19)" index="180465" value="2"/>
  <variable name="C(243,10)" index="180648" value="1"/>
  <variable name="C(243,7)" index="180649" value="2"/>
  <variable name="C(288,36)" index="180843" value="1"/>
  <variable name="C(288,4)" index="180844" value="2"/>
  <variable name="C(297,35)" index="180872" value="1"/>
  <variable name="C(297,36)" index="180873" value="2"/>
  <variable name="C(297,1)" index="180874" value="3"/>
  <variable name="C(322,1)" index="180975" value="1"/>
  <variable name="C(322,4)" index="180976" value="2"/>
  <variable name="C(322,18)" index="180977" value="3"/>
  <variable name="C(336,24)" index="181035" value="1"/>
  <variable name="C(336,10)" index="181036" value="2"/>
  <variable name="C(351,3)" index="181116" value="1"/>
  <variable name="C(363,8)" index="181156" value="1"/>
  <variable name="C(363,7)" index="181157" value="2"/>
  <variable name="C(363,1)" index="181158" value="3"/>
  <variable name="C(363,15)" index="181159" value="4"/>
  <variable name="C(426,8)" index="181426" value="1"/>
  <variable name="C(426,9)" index="181427" value="2"/>
  <variable name="C(437,25)" index="181473" value="1"/>
  <variable name="C(449,18)" index="181519" value="1"/>
  <variable name="C(449,4)" index="181520" value="2"/>
  <variable name="C(449,1)" index="181521" value="3"/>
  <variable name="C(449,7)" index="181522" value="4"/>
  <variable name="C(467,38)" index="181606" value="1"/>
  <variable name="C(467,36)" index="181607" value="2"/>
  <variable name="C(467,35)" index="181608" value="3"/>
  <variable name="C(480,39)" index="181662" value="1"/>
  <variable name="C(480,33)" index="181663" value="2"/>
  <variable name="C(497,36)" index="181728" value="1"/>
  <variable name="C(497,13)" index="181729" value="2"/>
  <variable name="C(498,14)" index="181733" value="1"/>
  <variable name="C(531,10)" index="181860" value="1"/>
  <variable name="C(531,8)" index="181861" value="2"/>
  <variable name="C(531,36)" index="181862" value="3"/>
  <variable name="C(540,4)" index="181898" value="1"/>
  <variable name="C(540,36)" index="181899" value="2"/>
  <variable name="C(540,30)" index="181900" value="3"/>
  <variable name="C(557,36)" index="181963" value="1"/>
  <variable name="C(557,23)" index="181964" value="2"/>
  <variable name="C(570,36)" index="182006" value="1"/>
  <variable name="C(570,8)" index="182007" value="2"/>
  <variable name="C(570,10)" index="182008" value="3"/>
  <variable name="C(570,11)" index="182009" value="4"/>
  <variable name="C(572,17)" index="182016" value="1"/>
  <variable name="C(584,39)" index="182058" value="1"/>
  <variable name="C(584,8)" index="182059" value="2"/>
  <variable name="C(584,6)" index="182060" value="3"/>
  <variable name="C(627,36)" index="182237" value="1"/>
  <variable name="C(627,27)" index="182238" value="2"/>
  <variable name="C(654,36)" index="182336" value="1"/>
  <variable name="C(654,38)" index="182337" value="2"/>
  <variable name="C(654,21)" index="182338" value="3"/>
  <variable name="C(682,33)" index="182449" value="1"/>
  <variable name="C(699,36)" index="182511" value="1"/>
  <variable name="C(699,31)" index="182512" value="2"/>
  <variable name="C(721,35)" index="182599" value="1"/>
  <variable name="C(721,37)" index="182600" value="2"/>
  <variable name="C(798,1)" index="182851" value="1"/>
  <variable name="C(798,2)" index="182852" value="2"/>
  <variable name="C(817,8)" index="182934" value="1"/>
  <variable name="C(817,39)" index="182935" value="2"/>
  <variable name="C(817,22)" index="182936" value="3"/>
  <variable name="C(823,28)" index="182962" value="1"/>
  <variable name="C(846,26)" index="183048" value="1"/>
 </variables>
</CPLEXSolution>
